Version identifier: 12.10.0.0 | 2019-11-26 | 843d4de
CPXPARAM_WorkMem                                 28672
Tried aggregator 2 times.
MIP Presolve modified 75 coefficients.
Aggregator did 20 substitutions.
Reduced MIP has 115 rows, 150 columns, and 545 nonzeros.
Reduced MIP has 150 binaries, 0 generals, 0 SOSs, and 0 indicators.
Presolve time = 0,00 sec. (0,74 ticks)
Found incumbent of value 100,000000 after 0,00 sec. (1,21 ticks)
Probing time = 0,00 sec. (0,18 ticks)
Tried aggregator 1 time.
Detecting symmetries...
MIP Presolve eliminated 25 rows and 0 columns.
MIP Presolve added 50 rows and 0 columns.
Reduced MIP has 140 rows, 150 columns, and 570 nonzeros.
Reduced MIP has 150 binaries, 0 generals, 0 SOSs, and 0 indicators.
Presolve time = 0,00 sec. (0,69 ticks)
Probing time = 0,00 sec. (0,17 ticks)
Clique table members: 355.
MIP emphasis: balance optimality and feasibility.
MIP search method: dynamic search.
Parallel mode: deterministic, using up to 16 threads.
Root relaxation solution time = 0,00 sec. (1,61 ticks)

        Nodes                                         Cuts/
   Node  Left     Objective  IInf  Best Integer    Best Bound    ItCnt     Gap

*     0+    0                          100,0000        0,0000           100,00%
*     0+    0                           61,0000        0,0000           100,00%
*     0+    0                           58,0000        0,0000           100,00%
*     0+    0                           55,0000        0,0000           100,00%
*     0+    0                           53,0000        0,0000           100,00%
      0     0       34,5000    62       53,0000       34,5000      159   34,91%
*     0+    0                           52,0000       34,5000            33,65%
      0     0       34,6667    62       52,0000      Cuts: 34      218   33,33%
      0     0       35,2572    62       52,0000      Cuts: 58      250   32,20%
      0     0       35,4917    62       52,0000      Cuts: 67      279   31,75%
      0     0       35,8814    62       52,0000      Cuts: 51      313   31,00%
      0     0       36,3750    62       52,0000      Cuts: 60      355   30,05%
      0     0       39,5801    62       52,0000      Cuts: 70      454   23,88%
      0     0       40,4358    62       52,0000      Cuts: 48      499   22,24%
      0     0       40,9334    62       52,0000      Cuts: 40      549   21,28%
      0     0       41,1143    62       52,0000      Cuts: 46      575   20,93%
      0     0       41,3749    62       52,0000      Cuts: 37      620   20,43%
      0     0       41,5343    62       52,0000      Cuts: 28      658   20,13%
      0     0       41,7857    62       52,0000      Cuts: 37      716   19,64%
      0     0       42,0217    62       52,0000      Cuts: 43      828   19,19%
      0     0       42,2609    62       52,0000      Cuts: 32      892   18,73%
      0     0       42,4093    62       52,0000      Cuts: 32      964   18,44%
      0     0       42,5697    62       52,0000      Cuts: 30     1012   18,14%
      0     0       42,6334    62       52,0000      Cuts: 20     1063   18,01%
      0     0       42,8893    62       52,0000      Cuts: 42     1152   17,52%
      0     0       42,9639    62       52,0000      Cuts: 32     1186   17,38%
      0     0       43,0080    62       52,0000      Cuts: 36     1232   17,29%
      0     0       43,0647    62       52,0000      Cuts: 10     1261   17,18%
      0     0       43,1892    62       52,0000      Cuts: 32     1320   16,94%
      0     0       43,3067    62       52,0000      Cuts: 36     1373   16,72%
      0     0       43,3995    62       52,0000      Cuts: 29     1438   16,54%
      0     0       43,4799    62       52,0000      Cuts: 34     1491   16,38%
      0     0       43,5193    62       52,0000      Cuts: 24     1523   16,31%
      0     0       43,5568    62       52,0000      Cuts: 14     1566   16,24%
      0     0       43,5931    62       52,0000       Cuts: 8     1602   16,17%
      0     0       43,6515    62       52,0000      Cuts: 33     1651   16,05%
      0     0       43,6677    62       52,0000       Cuts: 9     1678   16,02%
      0     0       43,6789    62       52,0000      Cuts: 17     1697   16,00%
      0     0       43,6877    62       52,0000       Cuts: 9     1722   15,99%
      0     2       43,6877   128       52,0000       44,6696     1722   14,10%
Elapsed time = 0,33 sec. (145,24 ticks, tree = 0,02 MB, solutions = 6)

Cover cuts applied:  55
Mixed integer rounding cuts applied:  21
Zero-half cuts applied:  73
Gomory fractional cuts applied:  2

Root node processing (before b&c):
  Real time             =    0,33 sec. (144,95 ticks)
Parallel b&c, 16 threads:
  Real time             =    0,04 sec. (20,83 ticks)
  Sync time (average)   =    0,02 sec.
  Wait time (average)   =    0,00 sec.
                          ------------
Total (root+branch&cut) =    0,36 sec. (165,79 ticks)
